p cnf 18 73
1 4 7 10 13 16 0
2 5 8 11 14 17 0
3 6 9 12 15 18 0
-1 -2 0
-1 -3 0
-2 -3 0
-4 -5 0
-4 -6 0
-5 -6 0
-7 -8 0
-7 -9 0
-8 -9 0
-10 -11 0
-10 -12 0
-11 -12 0
-13 -14 0
-13 -15 0
-14 -15 0
-16 -17 0
-16 -18 0
-17 -18 0
-4 -1 0
-7 -1 0
-7 -4 0
-10 -1 0
-10 -4 0
-10 -7 0
-13 -1 0
-13 -4 0
-13 -7 0
-13 -10 0
-16 -1 0
-16 -4 0
-16 -7 0
-16 -10 0
-16 -13 0
-5 -2 0
-8 -2 0
-8 -5 0
-11 -2 0
-11 -5 0
-11 -8 0
-14 -2 0
-14 -5 0
-14 -8 0
-14 -11 0
-17 -2 0
-17 -5 0
-17 -8 0
-17 -11 0
-17 -14 0
-6 -3 0
-9 -3 0
-9 -6 0
-12 -3 0
-12 -6 0
-12 -9 0
-15 -3 0
-15 -6 0
-15 -9 0
-15 -12 0
-18 -3 0
-18 -6 0
-18 -9 0
-18 -12 0
-18 -15 0
1 4 2 5 3 6 0
1 13 2 14 3 15 0
4 7 5 8 6 9 0
4 13 5 14 6 15 0
7 10 8 11 9 12 0
7 16 8 17 9 18 0
13 16 14 17 15 18 0
p cnf 26 192
1 3 5 7 9 11 13 15 17 19 21 23 25 0
2 4 6 8 10 12 14 16 18 20 22 24 26 0
-1 -2 0
-3 -4 0
-5 -6 0
-7 -8 0
-9 -10 0
-11 -12 0
-13 -14 0
-15 -16 0
-17 -18 0
-19 -20 0
-21 -22 0
-23 -24 0
-25 -26 0
-3 -1 0
-5 -1 0
-5 -3 0
-7 -1 0
-7 -3 0
-7 -5 0
-9 -1 0
-9 -3 0
-9 -5 0
-9 -7 0
-11 -1 0
-11 -3 0
-11 -5 0
-11 -7 0
-11 -9 0
-13 -1 0
-13 -3 0
-13 -5 0
-13 -7 0
-13 -9 0
-13 -11 0
-15 -1 0
-15 -3 0
-15 -5 0
-15 -7 0
-15 -9 0
-15 -11 0
-15 -13 0
-17 -1 0
-17 -3 0
-17 -5 0
-17 -7 0
-17 -9 0
-17 -11 0
-17 -13 0
-17 -15 0
-19 -1 0
-19 -3 0
-19 -5 0
-19 -7 0
-19 -9 0
-19 -11 0
-19 -13 0
-19 -15 0
-19 -17 0
-21 -1 0
-21 -3 0
-21 -5 0
-21 -7 0
-21 -9 0
-21 -11 0
-21 -13 0
-21 -15 0
-21 -17 0
-21 -19 0
-23 -1 0
-23 -3 0
-23 -5 0
-23 -7 0
-23 -9 0
-23 -11 0
-23 -13 0
-23 -15 0
-23 -17 0
-23 -19 0
-23 -21 0
-25 -1 0
-25 -3 0
-25 -5 0
-25 -7 0
-25 -9 0
-25 -11 0
-25 -13 0
-25 -15 0
-25 -17 0
-25 -19 0
-25 -21 0
-25 -23 0
-4 -2 0
-6 -2 0
-6 -4 0
-8 -2 0
-8 -4 0
-8 -6 0
-10 -2 0
-10 -4 0
-10 -6 0
-10 -8 0
-12 -2 0
-12 -4 0
-12 -6 0
-12 -8 0
-12 -10 0
-14 -2 0
-14 -4 0
-14 -6 0
-14 -8 0
-14 -10 0
-14 -12 0
-16 -2 0
-16 -4 0
-16 -6 0
-16 -8 0
-16 -10 0
-16 -12 0
-16 -14 0
-18 -2 0
-18 -4 0
-18 -6 0
-18 -8 0
-18 -10 0
-18 -12 0
-18 -14 0
-18 -16 0
-20 -2 0
-20 -4 0
-20 -6 0
-20 -8 0
-20 -10 0
-20 -12 0
-20 -14 0
-20 -16 0
-20 -18 0
-22 -2 0
-22 -4 0
-22 -6 0
-22 -8 0
-22 -10 0
-22 -12 0
-22 -14 0
-22 -16 0
-22 -18 0
-22 -20 0
-24 -2 0
-24 -4 0
-24 -6 0
-24 -8 0
-24 -10 0
-24 -12 0
-24 -14 0
-24 -16 0
-24 -18 0
-24 -20 0
-24 -22 0
-26 -2 0
-26 -4 0
-26 -6 0
-26 -8 0
-26 -10 0
-26 -12 0
-26 -14 0
-26 -16 0
-26 -18 0
-26 -20 0
-26 -22 0
-26 -24 0
1 3 2 4 0
1 9 2 10 0
1 15 2 16 0
1 17 2 18 0
3 5 4 6 0
3 9 4 10 0
3 15 4 16 0
3 19 4 20 0
3 21 4 22 0
5 7 6 8 0
5 11 6 12 0
5 19 6 20 0
5 23 6 24 0
5 25 6 26 0
7 23 8 24 0
9 11 10 12 0
9 17 10 18 0
9 21 10 22 0
9 27 10 28 0
11 25 12 26 0
11 27 12 28 0
